NAME : morphed18-2-9
COMMENT : Generated using the function morphInstances from the R-package netgen (Bossek,2015) - Number of clusters: 2 Alpha: 0.5
TYPE : TSP
DIMENSION : 18
EDGE_WEIGHT_TYPE : EUC_2D
NODE_COORD_SECTION
1 32.3068030692 36.7145291566
2 20.9157611857 44.5085591205
3 43.9705736347 93.1658902061
4 31.2157685487 13.7756660497
5 45.7156282689 30.0014507502
6 25.3473544437 17.5964663495
7 39.5261725499 53.6869454971
8 54.4437862725 93.613309866
9 64.0160162081 37.2749272485
10 90.5601002842 67.0612531919
11 40.887085652 98.3126223297
12 38.1530613889 87.229441773
13 81.1698618807 49.5128338356
14 50.4640307207 98.0599385837
15 47.6757842369 41.6174884959
16 60.1462600144 90.2374736124
17 45.8057438288 14.1608789996
18 92.460793576 92.0783624182
EOF
